80 254957
21 27 24 57 43 60 49 6 9 65 33 58 61 62 35 52 16 23 8 40 12 1 2 53 44 63 76 79 13 14 26 7 38 64 31 34 80 39 28 55 18 70 54 22 15 73 51 30 68 66 71 36 11 45 19 32 25 17 69 41 3 20 78 4 56 5 48 72 77 46 59 47 37 10 67 42 50 75 74 29 
